254,267
560,318
655,393
830,700
690,465
639,448
740,415
765,322
709,229
808,279
893,618
681,826
635,702
567,443
591,406
810,7
871,32
727,264
1194,240
918,369
810,7
342,160
406,131
261,406
620,791
635,702
554,279
